Total weight: 1149.6780210311167
Route 1: 0 28 33 65 71 51 7 82 18 52 69 1 50 76 12 26 53 40 21 73 2 97 95 96 5 83 6 94 13 4 56 72 74 43 91 100 37 59 93 17 60 89 58 0 
Route 2: 0 92 45 16 61 85 98 14 42 57 41 22 75 87 99 84 36 49 64 63 90 32 10 30 70 20 66 35 9 3 68 77 80 54 0 
Route 3: 0 86 44 38 15 23 39 67 34 78 81 79 29 24 55 25 0 
Route 4: 0 27 31 88 62 11 19 48 47 46 8 0 
